<number of tasks>
20

<cycle time>
1000

<order strength>
0.279


<task times>
1 66
2 192
3 83
4 67
5 230
6 108
7 21
8 267
9 172
10 108
11 237
12 235
13 255
14 136
15 252
16 90
17 122
18 56
19 85
20 22

<precedence relations>
1,8
2,8
3,8
4,8
5,10
6,9
6,11
7,12
8,13
8,14
8,15
8,16
8,17
17,18
18,19
18,20

<end>
